<?xml version="1.0" encoding="UTF-8"?><osil xmlns="os.optimizationservices.org"   xmlns:xsi="http://www.w3.org/2001/XMLSchema-instance" xsi:schemaLocation="os.optimizationservices.org http://www.optimizationservices.org/schemas/2.0/OSiL.xsd" ><instanceHeader><name>q_20_0_50_3</name></instanceHeader><instanceData><variables numberOfVariables="20"><var name="x1" ub="1"/><var name="x2" ub="1"/><var name="x3" ub="1"/><var name="x4" ub="1"/><var name="x5" ub="1"/><var name="x6" ub="1"/><var name="x7" ub="1"/><var name="x8" ub="1"/><var name="x9" ub="1"/><var name="x10" ub="1"/><var name="x11" ub="1"/><var name="x12" ub="1"/><var name="x13" ub="1"/><var name="x14" ub="1"/><var name="x15" ub="1"/><var name="x16" ub="1"/><var name="x17" ub="1"/><var name="x18" ub="1"/><var name="x19" ub="1"/><var name="x20" ub="1"/></variables><objectives numberOfObjectives="1"><obj maxOrMin="min" name="defObj_x21" numberOfObjCoef="20"><coef idx="0">-.589</coef><coef idx="1">.6958</coef><coef idx="2">-4.55e-2</coef><coef idx="3">-.267</coef><coef idx="4">.8622</coef><coef idx="5">-.5897</coef><coef idx="6">.1178</coef><coef idx="7">.8772</coef><coef idx="8">-.7239</coef><coef idx="9">.8153</coef><coef idx="10">.9875</coef><coef idx="11">6.61e-2</coef><coef idx="12">7.47e-2</coef><coef idx="13">-.9466</coef><coef idx="14">.9993</coef><coef idx="15">.4921</coef><coef idx="16">.1736</coef><coef idx="17">-.5295</coef><coef idx="18">-.5874</coef><coef idx="19">-.9963</coef></obj></objectives><quadraticCoefficients  numberOfQuadraticTerms="105" ><qTerm  idx="-1"  idxOne="0"  idxTwo="2"  coef=".3328"/><qTerm  idx="-1"  idxOne="0"  idxTwo="5"  coef="1.0756"/><qTerm  idx="-1"  idxOne="0"  idxTwo="6"  coef=".3701"/><qTerm  idx="-1"  idxOne="0"  idxTwo="12"  coef=".9367"/><qTerm  idx="-1"  idxOne="0"  idxTwo="14"  coef="-.5283"/><qTerm  idx="-1"  idxOne="0"  idxTwo="19"  coef="-.3215"/><qTerm  idx="-1"  idxOne="1"  idxTwo="3"  coef=".6694"/><qTerm  idx="-1"  idxOne="1"  idxTwo="5"  coef="-.9897"/><qTerm  idx="-1"  idxOne="1"  idxTwo="6"  coef=".8503"/><qTerm  idx="-1"  idxOne="1"  idxTwo="7"  coef="-.7812"/><qTerm  idx="-1"  idxOne="1"  idxTwo="8"  coef="-.8106"/><qTerm  idx="-1"  idxOne="1"  idxTwo="9"  coef="-1.9254"/><qTerm  idx="-1"  idxOne="1"  idxTwo="12"  coef="-.6353"/><qTerm  idx="-1"  idxOne="1"  idxTwo="13"  coef="1.5268"/><qTerm  idx="-1"  idxOne="1"  idxTwo="14"  coef="-.8012"/><qTerm  idx="-1"  idxOne="1"  idxTwo="16"  coef="-1.6967"/><qTerm  idx="-1"  idxOne="2"  idxTwo="3"  coef="1.2279"/><qTerm  idx="-1"  idxOne="2"  idxTwo="5"  coef="-.1731"/><qTerm  idx="-1"  idxOne="2"  idxTwo="6"  coef=".9478"/><qTerm  idx="-1"  idxOne="2"  idxTwo="8"  coef="-.8947"/><qTerm  idx="-1"  idxOne="2"  idxTwo="11"  coef="-1.4854"/><qTerm  idx="-1"  idxOne="2"  idxTwo="12"  coef="1.7806"/><qTerm  idx="-1"  idxOne="2"  idxTwo="13"  coef="1.3957"/><qTerm  idx="-1"  idxOne="2"  idxTwo="14"  coef=".9626"/><qTerm  idx="-1"  idxOne="2"  idxTwo="15"  coef="-.7728"/><qTerm  idx="-1"  idxOne="2"  idxTwo="16"  coef=".9036"/><qTerm  idx="-1"  idxOne="3"  idxTwo="3"  coef="-1.2246"/><qTerm  idx="-1"  idxOne="3"  idxTwo="4"  coef=".6604"/><qTerm  idx="-1"  idxOne="3"  idxTwo="7"  coef=".4603"/><qTerm  idx="-1"  idxOne="3"  idxTwo="8"  coef="1.5693"/><qTerm  idx="-1"  idxOne="3"  idxTwo="11"  coef="-.5358"/><qTerm  idx="-1"  idxOne="3"  idxTwo="14"  coef=".4123"/><qTerm  idx="-1"  idxOne="3"  idxTwo="16"  coef="-1.1173"/><qTerm  idx="-1"  idxOne="3"  idxTwo="17"  coef="-1.3197"/><qTerm  idx="-1"  idxOne="3"  idxTwo="18"  coef="1.7676"/><qTerm  idx="-1"  idxOne="4"  idxTwo="5"  coef="-.1178"/><qTerm  idx="-1"  idxOne="4"  idxTwo="8"  coef="1.2849"/><qTerm  idx="-1"  idxOne="4"  idxTwo="9"  coef="-1.6202"/><qTerm  idx="-1"  idxOne="4"  idxTwo="11"  coef="-1.0262"/><qTerm  idx="-1"  idxOne="4"  idxTwo="19"  coef="-.6266"/><qTerm  idx="-1"  idxOne="5"  idxTwo="5"  coef=".4719"/><qTerm  idx="-1"  idxOne="5"  idxTwo="8"  coef="1.5451"/><qTerm  idx="-1"  idxOne="5"  idxTwo="10"  coef="1.64"/><qTerm  idx="-1"  idxOne="5"  idxTwo="11"  coef=".2159"/><qTerm  idx="-1"  idxOne="5"  idxTwo="12"  coef=".5028"/><qTerm  idx="-1"  idxOne="5"  idxTwo="16"  coef="-.6707"/><qTerm  idx="-1"  idxOne="5"  idxTwo="17"  coef=".2765"/><qTerm  idx="-1"  idxOne="6"  idxTwo="6"  coef="-1.6695"/><qTerm  idx="-1"  idxOne="6"  idxTwo="9"  coef="-8.68e-2"/><qTerm  idx="-1"  idxOne="6"  idxTwo="10"  coef="1.8155"/><qTerm  idx="-1"  idxOne="6"  idxTwo="11"  coef="-.8291"/><qTerm  idx="-1"  idxOne="6"  idxTwo="12"  coef="-.4132"/><qTerm  idx="-1"  idxOne="6"  idxTwo="13"  coef="-1.9481"/><qTerm  idx="-1"  idxOne="6"  idxTwo="14"  coef=".6688"/><qTerm  idx="-1"  idxOne="6"  idxTwo="16"  coef="-1.726"/><qTerm  idx="-1"  idxOne="6"  idxTwo="18"  coef=".2969"/><qTerm  idx="-1"  idxOne="7"  idxTwo="7"  coef="-.3586"/><qTerm  idx="-1"  idxOne="7"  idxTwo="8"  coef=".5044"/><qTerm  idx="-1"  idxOne="7"  idxTwo="9"  coef="1.6561"/><qTerm  idx="-1"  idxOne="7"  idxTwo="12"  coef="1.5223"/><qTerm  idx="-1"  idxOne="7"  idxTwo="13"  coef="-.9697"/><qTerm  idx="-1"  idxOne="7"  idxTwo="14"  coef="-1.4488"/><qTerm  idx="-1"  idxOne="7"  idxTwo="16"  coef="1.09e-2"/><qTerm  idx="-1"  idxOne="7"  idxTwo="18"  coef="1.7754"/><qTerm  idx="-1"  idxOne="8"  idxTwo="10"  coef=".3588"/><qTerm  idx="-1"  idxOne="8"  idxTwo="11"  coef="1.9434"/><qTerm  idx="-1"  idxOne="8"  idxTwo="13"  coef=".827"/><qTerm  idx="-1"  idxOne="8"  idxTwo="14"  coef="-2.68e-2"/><qTerm  idx="-1"  idxOne="8"  idxTwo="17"  coef="-1.5968"/><qTerm  idx="-1"  idxOne="8"  idxTwo="18"  coef="-.8282"/><qTerm  idx="-1"  idxOne="8"  idxTwo="19"  coef="1.6639"/><qTerm  idx="-1"  idxOne="9"  idxTwo="11"  coef="-1.2026"/><qTerm  idx="-1"  idxOne="9"  idxTwo="14"  coef="1.3851"/><qTerm  idx="-1"  idxOne="9"  idxTwo="15"  coef="-1.8265"/><qTerm  idx="-1"  idxOne="9"  idxTwo="16"  coef="-.3594"/><qTerm  idx="-1"  idxOne="9"  idxTwo="18"  coef="-.1428"/><qTerm  idx="-1"  idxOne="10"  idxTwo="11"  coef="-.7874"/><qTerm  idx="-1"  idxOne="10"  idxTwo="13"  coef="-.4054"/><qTerm  idx="-1"  idxOne="10"  idxTwo="15"  coef="-1.2234"/><qTerm  idx="-1"  idxOne="10"  idxTwo="18"  coef="-.7753"/><qTerm  idx="-1"  idxOne="10"  idxTwo="19"  coef=".9541"/><qTerm  idx="-1"  idxOne="11"  idxTwo="13"  coef=".4016"/><qTerm  idx="-1"  idxOne="11"  idxTwo="14"  coef="1.1505"/><qTerm  idx="-1"  idxOne="11"  idxTwo="15"  coef="-1.8053"/><qTerm  idx="-1"  idxOne="11"  idxTwo="16"  coef=".4025"/><qTerm  idx="-1"  idxOne="11"  idxTwo="17"  coef="-.8073"/><qTerm  idx="-1"  idxOne="11"  idxTwo="18"  coef="1.6265"/><qTerm  idx="-1"  idxOne="11"  idxTwo="19"  coef="-.6199"/><qTerm  idx="-1"  idxOne="12"  idxTwo="13"  coef="1.3752"/><qTerm  idx="-1"  idxOne="12"  idxTwo="16"  coef="-1.7762"/><qTerm  idx="-1"  idxOne="12"  idxTwo="17"  coef="-.9964"/><qTerm  idx="-1"  idxOne="12"  idxTwo="19"  coef=".7342"/><qTerm  idx="-1"  idxOne="13"  idxTwo="14"  coef="-.4451"/><qTerm  idx="-1"  idxOne="13"  idxTwo="15"  coef="-1.6489"/><qTerm  idx="-1"  idxOne="13"  idxTwo="18"  coef="-.7428"/><qTerm  idx="-1"  idxOne="13"  idxTwo="19"  coef="-.9223"/><qTerm  idx="-1"  idxOne="14"  idxTwo="16"  coef=".3405"/><qTerm  idx="-1"  idxOne="14"  idxTwo="17"  coef=".7933"/><qTerm  idx="-1"  idxOne="14"  idxTwo="18"  coef=".3543"/><qTerm  idx="-1"  idxOne="15"  idxTwo="16"  coef=".9529"/><qTerm  idx="-1"  idxOne="15"  idxTwo="19"  coef="4.65e-2"/><qTerm  idx="-1"  idxOne="16"  idxTwo="17"  coef="-1.2576"/><qTerm  idx="-1"  idxOne="16"  idxTwo="18"  coef="-1.3742"/><qTerm  idx="-1"  idxOne="17"  idxTwo="17"  coef="-.9768"/><qTerm  idx="-1"  idxOne="18"  idxTwo="19"  coef=".6197"/></quadraticCoefficients></instanceData></osil>
